; benchmark generated from python API
(set-info :status unknown)
(declare-fun x_epoch () Int)
(declare-fun y_epoch () Int)
(declare-fun x_plus_epoch () Int)
(declare-fun x_plus_month () Int)
(declare-fun x_plus_year () Int)
(declare-fun x_plus_day () Int)
(assert
 (>= x_epoch (- 36525)))
(assert
 (<= x_epoch 36523))
(assert
 (>= y_epoch (- 36525)))
(assert
 (<= y_epoch 36523))
(assert
 (= x_epoch 7990))
(assert
 (>= x_plus_epoch (- 36525)))
(assert
 (<= x_plus_epoch 36523))
(assert
 (let (($x474 (= x_plus_month 11)))
 (let (($x729 (= x_plus_month 9)))
 (let (($x804 (= x_plus_month 6)))
 (let (($x1133 (= x_plus_month 4)))
 (let ((?x2541 (ite (or $x1133 $x804 $x729 $x474) 30 31)))
 (let (($x711 (= (mod x_plus_year 400) 0)))
 (let (($x3055 (= (mod x_plus_year 4) 0)))
 (let (($x839 (or (and $x3055 (and (distinct (mod x_plus_year 100) 0) true)) $x711)))
 (let (($x3345 (= x_plus_month 2)))
 (let (($x580 (>= x_plus_day 1)))
 (let (($x1345 (<= x_plus_month 12)))
 (let (($x927 (>= x_plus_month 1)))
 (let (($x1110 (<= x_plus_year 2100)))
 (let (($x975 (>= x_plus_year 1900)))
 (and $x975 $x1110 $x927 $x1345 $x580 (<= x_plus_day (ite $x3345 (ite $x839 29 28) ?x2541))))))))))))))))))
(assert
 (let (($x711 (= (mod x_plus_year 400) 0)))
 (let (($x3055 (= (mod x_plus_year 4) 0)))
 (let (($x839 (or (and $x3055 (and (distinct (mod x_plus_year 100) 0) true)) $x711)))
 (let (($x783 (= 2 x_plus_month)))
 (let ((?x1176 (ite $x783 (ite $x839 31 31) (ite (= 1 x_plus_month) (ite $x839 0 0) 0))))
 (let (($x995 (= 3 x_plus_month)))
 (let (($x1186 (= 4 x_plus_month)))
 (let ((?x959 (ite $x1186 (ite $x839 91 90) (ite $x995 (ite $x839 60 59) ?x1176))))
 (let (($x864 (= 5 x_plus_month)))
 (let (($x707 (= 6 x_plus_month)))
 (let ((?x958 (ite $x707 (ite $x839 152 151) (ite $x864 (ite $x839 121 120) ?x959))))
 (let (($x568 (= 7 x_plus_month)))
 (let (($x595 (= 8 x_plus_month)))
 (let ((?x1055 (ite $x595 (ite $x839 213 212) (ite $x568 (ite $x839 182 181) ?x958))))
 (let (($x2027 (= 9 x_plus_month)))
 (let (($x996 (= 10 x_plus_month)))
 (let ((?x1040 (ite $x996 (ite $x839 274 273) (ite $x2027 (ite $x839 244 243) ?x1055))))
 (let (($x869 (= 11 x_plus_month)))
 (let (($x602 (= 12 x_plus_month)))
 (let ((?x500 (ite $x602 (ite $x839 335 334) (ite $x869 (ite $x839 305 304) ?x1040))))
 (let ((?x933 (+ (* 365 (- x_plus_year 1)) (div (- x_plus_year 1) 4))))
 (let ((?x1107 (+ (- ?x933 (div (- x_plus_year 1) 100)) (div (- x_plus_year 1) 400))))
 (= x_plus_epoch (- (+ (+ ?x1107 ?x500) (- x_plus_day 1)) 730179)))))))))))))))))))))))))
(assert
 (let ((?x727 (+ x_epoch 730179)))
 (let ((?x1230 (mod ?x727 146097)))
 (let ((?x2607 (div ?x1230 36524)))
 (let ((?x1117 (ite (<= 4 ?x2607) 3 ?x2607)))
 (let ((?x2141 (- ?x1230 (* ?x1117 36524))))
 (let ((?x835 (mod ?x2141 1461)))
 (let ((?x1198 (div ?x835 365)))
 (let ((?x1059 (ite (<= 4 ?x1198) 3 ?x1198)))
 (let ((?x1324 (+ (+ (* (div ?x727 146097) 400) (* ?x1117 100)) (* (div ?x2141 1461) 4))))
 (let ((?x736 (+ (+ ?x1324 ?x1059) 1)))
 (let (($x3865 (or (and (= (mod ?x736 4) 0) (and (distinct (mod ?x736 100) 0) true)) (= (mod ?x736 400) 0))))
 (let ((?x863 (- ?x835 (* ?x1059 365))))
 (let ((?x3443 (ite $x3865 31 31)))
 (let (($x904 (>= ?x863 ?x3443)))
 (let ((?x2088 (ite $x904 (+ (- ?x863 ?x3443) 1) (+ (- ?x863 (ite $x3865 0 0)) 1))))
 (let ((?x3384 (ite $x3865 60 59)))
 (let (($x1025 (>= ?x863 ?x3384)))
 (let ((?x941 (ite $x3865 91 90)))
 (let (($x439 (>= ?x863 ?x941)))
 (let ((?x819 (ite $x439 (+ (- ?x863 ?x941) 1) (ite $x1025 (+ (- ?x863 ?x3384) 1) ?x2088))))
 (let ((?x511 (ite $x3865 121 120)))
 (let (($x2931 (>= ?x863 ?x511)))
 (let ((?x3860 (ite $x3865 152 151)))
 (let (($x3340 (>= ?x863 ?x3860)))
 (let ((?x766 (ite $x3340 (+ (- ?x863 ?x3860) 1) (ite $x2931 (+ (- ?x863 ?x511) 1) ?x819))))
 (let ((?x850 (ite $x3865 182 181)))
 (let (($x629 (>= ?x863 ?x850)))
 (let ((?x3549 (ite $x3865 213 212)))
 (let (($x1203 (>= ?x863 ?x3549)))
 (let ((?x1742 (ite $x1203 (+ (- ?x863 ?x3549) 1) (ite $x629 (+ (- ?x863 ?x850) 1) ?x766))))
 (let ((?x838 (ite $x3865 244 243)))
 (let (($x3244 (>= ?x863 ?x838)))
 (let ((?x1956 (ite $x3865 274 273)))
 (let (($x3144 (>= ?x863 ?x1956)))
 (let ((?x2205 (ite $x3144 (+ (- ?x863 ?x1956) 1) (ite $x3244 (+ (- ?x863 ?x838) 1) ?x1742))))
 (let ((?x1604 (ite $x3865 305 304)))
 (let (($x2513 (>= ?x863 ?x1604)))
 (let ((?x2014 (ite $x3865 335 334)))
 (let (($x2736 (>= ?x863 ?x2014)))
 (let ((?x730 (ite $x2736 (+ (- ?x863 ?x2014) 1) (ite $x2513 (+ (- ?x863 ?x1604) 1) ?x2205))))
 (let ((?x431 (* 0 12)))
 (let ((?x2835 (+ ?x431 13)))
 (let ((?x1001 (ite $x2931 5 (ite $x439 4 (ite $x1025 3 (ite $x904 2 1))))))
 (let ((?x3030 (ite $x3244 9 (ite $x1203 8 (ite $x629 7 (ite $x3340 6 ?x1001))))))
 (let ((?x1497 (ite $x2736 12 (ite $x2513 11 (ite $x3144 10 ?x3030)))))
 (let ((?x1258 (+ ?x1497 ?x2835)))
 (let ((?x2945 (- ?x1258 1)))
 (let ((?x3205 (+ (mod ?x2945 12) 1)))
 (let ((?x3668 (ite (or (= ?x3205 4) (= ?x3205 6) (= ?x3205 9) (= ?x3205 11)) 30 31)))
 (let (($x2133 (and (= (mod (+ ?x736 (+ 0 (div ?x2945 12))) 4) 0) (and (distinct (mod (+ ?x736 (+ 0 (div ?x2945 12))) 100) 0) true))))
 (let (($x3483 (or $x2133 (= (mod (+ ?x736 (+ 0 (div ?x2945 12))) 400) 0))))
 (let ((?x2240 (ite (= ?x3205 2) (ite $x3483 29 28) ?x3668)))
 (let (($x3891 (> 1 ?x730)))
 (let ((?x2826 (ite $x3891 1 (ite (> ?x730 ?x2240) ?x2240 ?x730))))
 (let ((?x2179 (ite (> 1 ?x2826) 1 (ite (> ?x2826 ?x2240) ?x2240 ?x2826))))
 (let ((?x3650 (ite (= 2 ?x3205) (ite $x3483 31 31) (ite (= 1 ?x3205) (ite $x3483 0 0) 0))))
 (let ((?x3337 (ite (= 4 ?x3205) (ite $x3483 91 90) (ite (= 3 ?x3205) (ite $x3483 60 59) ?x3650))))
 (let ((?x3298 (ite (= 6 ?x3205) (ite $x3483 152 151) (ite (= 5 ?x3205) (ite $x3483 121 120) ?x3337))))
 (let ((?x3804 (ite (= 8 ?x3205) (ite $x3483 213 212) (ite (= 7 ?x3205) (ite $x3483 182 181) ?x3298))))
 (let ((?x3425 (ite (= 10 ?x3205) (ite $x3483 274 273) (ite (= 9 ?x3205) (ite $x3483 244 243) ?x3804))))
 (let ((?x2225 (ite (= 12 ?x3205) (ite $x3483 335 334) (ite (= 11 ?x3205) (ite $x3483 305 304) ?x3425))))
 (let ((?x1850 (+ (* 365 (- (+ ?x736 (+ 0 (div ?x2945 12))) 1)) (div (- (+ ?x736 (+ 0 (div ?x2945 12))) 1) 4))))
 (let ((?x3749 (+ (- ?x1850 (div (- (+ ?x736 (+ 0 (div ?x2945 12))) 1) 100)) (div (- (+ ?x736 (+ 0 (div ?x2945 12))) 1) 400))))
 (let ((?x3589 (+ (+ (- (+ (+ ?x3749 ?x2225) (- ?x2179 1)) 730179) 40) 730179)))
 (let ((?x3477 (mod ?x3589 146097)))
 (let ((?x2136 (div ?x3477 36524)))
 (let ((?x3310 (ite (<= 4 ?x2136) 3 ?x2136)))
 (let ((?x3131 (- ?x3477 (* ?x3310 36524))))
 (let ((?x3568 (mod ?x3131 1461)))
 (let ((?x810 (div ?x3568 365)))
 (let ((?x3826 (ite (<= 4 ?x810) 3 ?x810)))
 (let ((?x3736 (+ (+ (* (div ?x3589 146097) 400) (* ?x3310 100)) (* (div ?x3131 1461) 4))))
 (let ((?x1410 (+ (+ ?x3736 ?x3826) 1)))
 (let ((?x2188 (+ 0 (div ?x2945 12))))
 (let ((?x1732 (+ ?x736 ?x2188)))
 (let (($x3004 (= 40 0)))
 (let ((?x3368 (ite $x3004 ?x1732 ?x1410)))
 (= x_plus_year ?x3368)))))))))))))))))))))))))))))))))))))))))))))))))))))))))))))))))))))))))))))))
(assert
 (let ((?x727 (+ x_epoch 730179)))
 (let ((?x1230 (mod ?x727 146097)))
 (let ((?x2607 (div ?x1230 36524)))
 (let ((?x1117 (ite (<= 4 ?x2607) 3 ?x2607)))
 (let ((?x2141 (- ?x1230 (* ?x1117 36524))))
 (let ((?x835 (mod ?x2141 1461)))
 (let ((?x1198 (div ?x835 365)))
 (let ((?x1059 (ite (<= 4 ?x1198) 3 ?x1198)))
 (let ((?x1324 (+ (+ (* (div ?x727 146097) 400) (* ?x1117 100)) (* (div ?x2141 1461) 4))))
 (let ((?x736 (+ (+ ?x1324 ?x1059) 1)))
 (let (($x3865 (or (and (= (mod ?x736 4) 0) (and (distinct (mod ?x736 100) 0) true)) (= (mod ?x736 400) 0))))
 (let ((?x863 (- ?x835 (* ?x1059 365))))
 (let ((?x3443 (ite $x3865 31 31)))
 (let (($x904 (>= ?x863 ?x3443)))
 (let ((?x2088 (ite $x904 (+ (- ?x863 ?x3443) 1) (+ (- ?x863 (ite $x3865 0 0)) 1))))
 (let ((?x3384 (ite $x3865 60 59)))
 (let (($x1025 (>= ?x863 ?x3384)))
 (let ((?x941 (ite $x3865 91 90)))
 (let (($x439 (>= ?x863 ?x941)))
 (let ((?x819 (ite $x439 (+ (- ?x863 ?x941) 1) (ite $x1025 (+ (- ?x863 ?x3384) 1) ?x2088))))
 (let ((?x511 (ite $x3865 121 120)))
 (let (($x2931 (>= ?x863 ?x511)))
 (let ((?x3860 (ite $x3865 152 151)))
 (let (($x3340 (>= ?x863 ?x3860)))
 (let ((?x766 (ite $x3340 (+ (- ?x863 ?x3860) 1) (ite $x2931 (+ (- ?x863 ?x511) 1) ?x819))))
 (let ((?x850 (ite $x3865 182 181)))
 (let (($x629 (>= ?x863 ?x850)))
 (let ((?x3549 (ite $x3865 213 212)))
 (let (($x1203 (>= ?x863 ?x3549)))
 (let ((?x1742 (ite $x1203 (+ (- ?x863 ?x3549) 1) (ite $x629 (+ (- ?x863 ?x850) 1) ?x766))))
 (let ((?x838 (ite $x3865 244 243)))
 (let (($x3244 (>= ?x863 ?x838)))
 (let ((?x1956 (ite $x3865 274 273)))
 (let (($x3144 (>= ?x863 ?x1956)))
 (let ((?x2205 (ite $x3144 (+ (- ?x863 ?x1956) 1) (ite $x3244 (+ (- ?x863 ?x838) 1) ?x1742))))
 (let ((?x1604 (ite $x3865 305 304)))
 (let (($x2513 (>= ?x863 ?x1604)))
 (let ((?x2014 (ite $x3865 335 334)))
 (let (($x2736 (>= ?x863 ?x2014)))
 (let ((?x730 (ite $x2736 (+ (- ?x863 ?x2014) 1) (ite $x2513 (+ (- ?x863 ?x1604) 1) ?x2205))))
 (let ((?x431 (* 0 12)))
 (let ((?x2835 (+ ?x431 13)))
 (let ((?x1001 (ite $x2931 5 (ite $x439 4 (ite $x1025 3 (ite $x904 2 1))))))
 (let ((?x3030 (ite $x3244 9 (ite $x1203 8 (ite $x629 7 (ite $x3340 6 ?x1001))))))
 (let ((?x1497 (ite $x2736 12 (ite $x2513 11 (ite $x3144 10 ?x3030)))))
 (let ((?x1258 (+ ?x1497 ?x2835)))
 (let ((?x2945 (- ?x1258 1)))
 (let ((?x3205 (+ (mod ?x2945 12) 1)))
 (let ((?x3668 (ite (or (= ?x3205 4) (= ?x3205 6) (= ?x3205 9) (= ?x3205 11)) 30 31)))
 (let (($x2133 (and (= (mod (+ ?x736 (+ 0 (div ?x2945 12))) 4) 0) (and (distinct (mod (+ ?x736 (+ 0 (div ?x2945 12))) 100) 0) true))))
 (let (($x3483 (or $x2133 (= (mod (+ ?x736 (+ 0 (div ?x2945 12))) 400) 0))))
 (let ((?x2240 (ite (= ?x3205 2) (ite $x3483 29 28) ?x3668)))
 (let (($x3891 (> 1 ?x730)))
 (let ((?x2826 (ite $x3891 1 (ite (> ?x730 ?x2240) ?x2240 ?x730))))
 (let ((?x2179 (ite (> 1 ?x2826) 1 (ite (> ?x2826 ?x2240) ?x2240 ?x2826))))
 (let ((?x3650 (ite (= 2 ?x3205) (ite $x3483 31 31) (ite (= 1 ?x3205) (ite $x3483 0 0) 0))))
 (let ((?x3337 (ite (= 4 ?x3205) (ite $x3483 91 90) (ite (= 3 ?x3205) (ite $x3483 60 59) ?x3650))))
 (let ((?x3298 (ite (= 6 ?x3205) (ite $x3483 152 151) (ite (= 5 ?x3205) (ite $x3483 121 120) ?x3337))))
 (let ((?x3804 (ite (= 8 ?x3205) (ite $x3483 213 212) (ite (= 7 ?x3205) (ite $x3483 182 181) ?x3298))))
 (let ((?x3425 (ite (= 10 ?x3205) (ite $x3483 274 273) (ite (= 9 ?x3205) (ite $x3483 244 243) ?x3804))))
 (let ((?x2225 (ite (= 12 ?x3205) (ite $x3483 335 334) (ite (= 11 ?x3205) (ite $x3483 305 304) ?x3425))))
 (let ((?x1850 (+ (* 365 (- (+ ?x736 (+ 0 (div ?x2945 12))) 1)) (div (- (+ ?x736 (+ 0 (div ?x2945 12))) 1) 4))))
 (let ((?x3749 (+ (- ?x1850 (div (- (+ ?x736 (+ 0 (div ?x2945 12))) 1) 100)) (div (- (+ ?x736 (+ 0 (div ?x2945 12))) 1) 400))))
 (let ((?x3589 (+ (+ (- (+ (+ ?x3749 ?x2225) (- ?x2179 1)) 730179) 40) 730179)))
 (let ((?x3477 (mod ?x3589 146097)))
 (let ((?x2136 (div ?x3477 36524)))
 (let ((?x3310 (ite (<= 4 ?x2136) 3 ?x2136)))
 (let ((?x3131 (- ?x3477 (* ?x3310 36524))))
 (let ((?x3568 (mod ?x3131 1461)))
 (let ((?x810 (div ?x3568 365)))
 (let ((?x3826 (ite (<= 4 ?x810) 3 ?x810)))
 (let ((?x3736 (+ (+ (* (div ?x3589 146097) 400) (* ?x3310 100)) (* (div ?x3131 1461) 4))))
 (let ((?x1410 (+ (+ ?x3736 ?x3826) 1)))
 (let (($x1145 (or (and (= (mod ?x1410 4) 0) (and (distinct (mod ?x1410 100) 0) true)) (= (mod ?x1410 400) 0))))
 (let ((?x686 (ite $x1145 31 31)))
 (let ((?x1611 (- ?x3568 (* ?x3826 365))))
 (let (($x2599 (>= ?x1611 ?x686)))
 (let ((?x1803 (ite $x1145 60 59)))
 (let (($x4261 (>= ?x1611 ?x1803)))
 (let ((?x2332 (ite $x1145 91 90)))
 (let (($x4264 (>= ?x1611 ?x2332)))
 (let ((?x1293 (ite $x1145 121 120)))
 (let (($x4263 (>= ?x1611 ?x1293)))
 (let ((?x2484 (ite $x4263 5 (ite $x4264 4 (ite $x4261 3 (ite $x2599 2 1))))))
 (let ((?x1986 (ite $x1145 152 151)))
 (let (($x2739 (>= ?x1611 ?x1986)))
 (let ((?x4251 (ite $x1145 182 181)))
 (let (($x1964 (>= ?x1611 ?x4251)))
 (let ((?x4273 (ite $x1145 213 212)))
 (let (($x1735 (>= ?x1611 ?x4273)))
 (let ((?x4275 (ite $x1145 244 243)))
 (let (($x4249 (>= ?x1611 ?x4275)))
 (let ((?x4253 (ite $x4249 9 (ite $x1735 8 (ite $x1964 7 (ite $x2739 6 ?x2484))))))
 (let ((?x2097 (ite $x1145 274 273)))
 (let (($x4250 (>= ?x1611 ?x2097)))
 (let ((?x4274 (ite $x1145 305 304)))
 (let (($x4255 (>= ?x1611 ?x4274)))
 (let ((?x2271 (ite $x1145 335 334)))
 (let (($x4257 (>= ?x1611 ?x2271)))
 (let ((?x3124 (ite $x4257 12 (ite $x4255 11 (ite $x4250 10 ?x4253)))))
 (let (($x3004 (= 40 0)))
 (let ((?x3369 (ite $x3004 ?x3205 ?x3124)))
 (= x_plus_month ?x3369))))))))))))))))))))))))))))))))))))))))))))))))))))))))))))))))))))))))))))))))))))))))))))))))))))))))
(assert
 (let ((?x727 (+ x_epoch 730179)))
 (let ((?x1230 (mod ?x727 146097)))
 (let ((?x2607 (div ?x1230 36524)))
 (let ((?x1117 (ite (<= 4 ?x2607) 3 ?x2607)))
 (let ((?x2141 (- ?x1230 (* ?x1117 36524))))
 (let ((?x835 (mod ?x2141 1461)))
 (let ((?x1198 (div ?x835 365)))
 (let ((?x1059 (ite (<= 4 ?x1198) 3 ?x1198)))
 (let ((?x1324 (+ (+ (* (div ?x727 146097) 400) (* ?x1117 100)) (* (div ?x2141 1461) 4))))
 (let ((?x736 (+ (+ ?x1324 ?x1059) 1)))
 (let (($x3865 (or (and (= (mod ?x736 4) 0) (and (distinct (mod ?x736 100) 0) true)) (= (mod ?x736 400) 0))))
 (let ((?x863 (- ?x835 (* ?x1059 365))))
 (let ((?x3443 (ite $x3865 31 31)))
 (let (($x904 (>= ?x863 ?x3443)))
 (let ((?x2088 (ite $x904 (+ (- ?x863 ?x3443) 1) (+ (- ?x863 (ite $x3865 0 0)) 1))))
 (let ((?x3384 (ite $x3865 60 59)))
 (let (($x1025 (>= ?x863 ?x3384)))
 (let ((?x941 (ite $x3865 91 90)))
 (let (($x439 (>= ?x863 ?x941)))
 (let ((?x819 (ite $x439 (+ (- ?x863 ?x941) 1) (ite $x1025 (+ (- ?x863 ?x3384) 1) ?x2088))))
 (let ((?x511 (ite $x3865 121 120)))
 (let (($x2931 (>= ?x863 ?x511)))
 (let ((?x3860 (ite $x3865 152 151)))
 (let (($x3340 (>= ?x863 ?x3860)))
 (let ((?x766 (ite $x3340 (+ (- ?x863 ?x3860) 1) (ite $x2931 (+ (- ?x863 ?x511) 1) ?x819))))
 (let ((?x850 (ite $x3865 182 181)))
 (let (($x629 (>= ?x863 ?x850)))
 (let ((?x3549 (ite $x3865 213 212)))
 (let (($x1203 (>= ?x863 ?x3549)))
 (let ((?x1742 (ite $x1203 (+ (- ?x863 ?x3549) 1) (ite $x629 (+ (- ?x863 ?x850) 1) ?x766))))
 (let ((?x838 (ite $x3865 244 243)))
 (let (($x3244 (>= ?x863 ?x838)))
 (let ((?x1956 (ite $x3865 274 273)))
 (let (($x3144 (>= ?x863 ?x1956)))
 (let ((?x2205 (ite $x3144 (+ (- ?x863 ?x1956) 1) (ite $x3244 (+ (- ?x863 ?x838) 1) ?x1742))))
 (let ((?x1604 (ite $x3865 305 304)))
 (let (($x2513 (>= ?x863 ?x1604)))
 (let ((?x2014 (ite $x3865 335 334)))
 (let (($x2736 (>= ?x863 ?x2014)))
 (let ((?x730 (ite $x2736 (+ (- ?x863 ?x2014) 1) (ite $x2513 (+ (- ?x863 ?x1604) 1) ?x2205))))
 (let ((?x431 (* 0 12)))
 (let ((?x2835 (+ ?x431 13)))
 (let ((?x1001 (ite $x2931 5 (ite $x439 4 (ite $x1025 3 (ite $x904 2 1))))))
 (let ((?x3030 (ite $x3244 9 (ite $x1203 8 (ite $x629 7 (ite $x3340 6 ?x1001))))))
 (let ((?x1497 (ite $x2736 12 (ite $x2513 11 (ite $x3144 10 ?x3030)))))
 (let ((?x1258 (+ ?x1497 ?x2835)))
 (let ((?x2945 (- ?x1258 1)))
 (let ((?x3205 (+ (mod ?x2945 12) 1)))
 (let ((?x3668 (ite (or (= ?x3205 4) (= ?x3205 6) (= ?x3205 9) (= ?x3205 11)) 30 31)))
 (let (($x2133 (and (= (mod (+ ?x736 (+ 0 (div ?x2945 12))) 4) 0) (and (distinct (mod (+ ?x736 (+ 0 (div ?x2945 12))) 100) 0) true))))
 (let (($x3483 (or $x2133 (= (mod (+ ?x736 (+ 0 (div ?x2945 12))) 400) 0))))
 (let ((?x2240 (ite (= ?x3205 2) (ite $x3483 29 28) ?x3668)))
 (let (($x3891 (> 1 ?x730)))
 (let ((?x2826 (ite $x3891 1 (ite (> ?x730 ?x2240) ?x2240 ?x730))))
 (let ((?x2179 (ite (> 1 ?x2826) 1 (ite (> ?x2826 ?x2240) ?x2240 ?x2826))))
 (let ((?x3650 (ite (= 2 ?x3205) (ite $x3483 31 31) (ite (= 1 ?x3205) (ite $x3483 0 0) 0))))
 (let ((?x3337 (ite (= 4 ?x3205) (ite $x3483 91 90) (ite (= 3 ?x3205) (ite $x3483 60 59) ?x3650))))
 (let ((?x3298 (ite (= 6 ?x3205) (ite $x3483 152 151) (ite (= 5 ?x3205) (ite $x3483 121 120) ?x3337))))
 (let ((?x3804 (ite (= 8 ?x3205) (ite $x3483 213 212) (ite (= 7 ?x3205) (ite $x3483 182 181) ?x3298))))
 (let ((?x3425 (ite (= 10 ?x3205) (ite $x3483 274 273) (ite (= 9 ?x3205) (ite $x3483 244 243) ?x3804))))
 (let ((?x2225 (ite (= 12 ?x3205) (ite $x3483 335 334) (ite (= 11 ?x3205) (ite $x3483 305 304) ?x3425))))
 (let ((?x1850 (+ (* 365 (- (+ ?x736 (+ 0 (div ?x2945 12))) 1)) (div (- (+ ?x736 (+ 0 (div ?x2945 12))) 1) 4))))
 (let ((?x3749 (+ (- ?x1850 (div (- (+ ?x736 (+ 0 (div ?x2945 12))) 1) 100)) (div (- (+ ?x736 (+ 0 (div ?x2945 12))) 1) 400))))
 (let ((?x3589 (+ (+ (- (+ (+ ?x3749 ?x2225) (- ?x2179 1)) 730179) 40) 730179)))
 (let ((?x3477 (mod ?x3589 146097)))
 (let ((?x2136 (div ?x3477 36524)))
 (let ((?x3310 (ite (<= 4 ?x2136) 3 ?x2136)))
 (let ((?x3131 (- ?x3477 (* ?x3310 36524))))
 (let ((?x3568 (mod ?x3131 1461)))
 (let ((?x810 (div ?x3568 365)))
 (let ((?x3826 (ite (<= 4 ?x810) 3 ?x810)))
 (let ((?x3736 (+ (+ (* (div ?x3589 146097) 400) (* ?x3310 100)) (* (div ?x3131 1461) 4))))
 (let ((?x1410 (+ (+ ?x3736 ?x3826) 1)))
 (let (($x1145 (or (and (= (mod ?x1410 4) 0) (and (distinct (mod ?x1410 100) 0) true)) (= (mod ?x1410 400) 0))))
 (let ((?x1611 (- ?x3568 (* ?x3826 365))))
 (let ((?x686 (ite $x1145 31 31)))
 (let (($x2599 (>= ?x1611 ?x686)))
 (let ((?x4240 (ite $x2599 (+ (- ?x1611 ?x686) 1) (+ (- ?x1611 (ite $x1145 0 0)) 1))))
 (let ((?x1803 (ite $x1145 60 59)))
 (let (($x4261 (>= ?x1611 ?x1803)))
 (let ((?x2332 (ite $x1145 91 90)))
 (let (($x4264 (>= ?x1611 ?x2332)))
 (let ((?x2109 (ite $x4264 (+ (- ?x1611 ?x2332) 1) (ite $x4261 (+ (- ?x1611 ?x1803) 1) ?x4240))))
 (let ((?x1293 (ite $x1145 121 120)))
 (let (($x4263 (>= ?x1611 ?x1293)))
 (let ((?x1986 (ite $x1145 152 151)))
 (let (($x2739 (>= ?x1611 ?x1986)))
 (let ((?x1436 (ite $x2739 (+ (- ?x1611 ?x1986) 1) (ite $x4263 (+ (- ?x1611 ?x1293) 1) ?x2109))))
 (let ((?x4251 (ite $x1145 182 181)))
 (let (($x1964 (>= ?x1611 ?x4251)))
 (let ((?x4273 (ite $x1145 213 212)))
 (let (($x1735 (>= ?x1611 ?x4273)))
 (let ((?x2904 (ite $x1735 (+ (- ?x1611 ?x4273) 1) (ite $x1964 (+ (- ?x1611 ?x4251) 1) ?x1436))))
 (let ((?x4275 (ite $x1145 244 243)))
 (let (($x4249 (>= ?x1611 ?x4275)))
 (let ((?x2097 (ite $x1145 274 273)))
 (let (($x4250 (>= ?x1611 ?x2097)))
 (let ((?x4227 (ite $x4250 (+ (- ?x1611 ?x2097) 1) (ite $x4249 (+ (- ?x1611 ?x4275) 1) ?x2904))))
 (let ((?x4274 (ite $x1145 305 304)))
 (let (($x4255 (>= ?x1611 ?x4274)))
 (let ((?x2271 (ite $x1145 335 334)))
 (let (($x4257 (>= ?x1611 ?x2271)))
 (let ((?x4234 (ite $x4257 (+ (- ?x1611 ?x2271) 1) (ite $x4255 (+ (- ?x1611 ?x4274) 1) ?x4227))))
 (let (($x3004 (= 40 0)))
 (let ((?x4220 (ite $x3004 ?x2179 ?x4234)))
 (= x_plus_day ?x4220)))))))))))))))))))))))))))))))))))))))))))))))))))))))))))))))))))))))))))))))))))))))))))))))))))))))))))
(assert
 (= y_epoch x_plus_epoch))
(assert
 (not (= y_epoch 8395)))
(check-sat)
